DIMACS2
80 140 261 48 263 260 123 65 63 37 312 203 109 275 277 208 56 28 256 36 242 150 214 117 151 101 142 164 284 210 112 121 73 16 250 216 236 35 254 84 50 22 108 182 6 38 287 120 268 163 62 266 191 177 94 270 199 183 96 213 252 31 205 86 160 149 288 244 292 289 90 58 212 299 303 282 176 76 69 311 196
p edge 320 1268
e 0 137 1.0
e 0 260 46.0
e 0 121 36.0
e 0 295 1.0
e 1 275 30.0
e 1 11 1.0
e 1 260 47.0
e 1 72 1.0
e 2 165 2.0
e 2 65 39.0
e 2 198 1.0
e 2 159 1.0
e 3 6 25.0
e 3 204 1.0
e 3 290 1.0
e 3 255 1.0
e 4 246 1.0
e 4 33 1.0
e 4 55 1.0
e 4 109 40.0
e 5 22 20.0
e 5 314 2.0
e 5 32 1.0
e 5 131 1.0
e 6 194 13.0
e 6 201 46.0
e 6 32 16.0
e 6 25 15.0
e 7 128 1.0
e 7 246 1.0
e 7 266 22.0
e 7 134 1.0
e 8 267 1.0
e 8 284 34.0
e 8 4 1.0
e 8 106 1.0
e 9 145 1.0
e 9 171 2.0
e 9 299 29.0
e 9 186 2.0
e 10 175 2.0
e 10 34 1.0
e 10 229 1.0
e 10 177 8.0
e 11 178 1.0
e 11 176 22.0
e 11 299 3.0
e 12 248 1.0
e 12 316 1.0
e 12 256 26.0
e 12 103 1.0
e 13 3 1.0
e 13 55 1.0
e 13 267 1.0
e 13 268 23.0
e 14 25 1.0
e 14 211 1.0
e 14 12 1.0
e 14 123 48.0
e 15 207 1.0
e 15 72 1.0
e 15 306 1.0
e 15 228 1.0
e 16 212 47.0
e 16 95 19.0
e 16 132 25.0
e 16 289 27.0
e 17 274 1.0
e 17 66 3.0
e 17 184 1.0
e 17 37 30.0
e 18 260 18.0
e 18 99 1.0
e 18 187 1.0
e 18 283 1.0
e 19 231 1.0
e 19 40 1.0
e 19 121 32.0
e 19 112 27.0
e 20 99 2.0
e 20 271 1.0
e 20 160 30.0
e 20 83 1.0
e 21 73 15.0
e 21 80 1.0
e 21 113 1.0
e 21 23 1.0
e 22 137 35.0
e 22 72 9.0
e 22 153 49.0
e 22 313 45.0
e 23 150 22.0
e 23 295 1.0
e 23 185 1.0
e 23 263 37.0
e 24 67 1.0
e 24 142 45.0
e 24 285 1.0
e 24 100 1.0
e 25 176 41.0
e 25 210 27.0
e 25 280 1.0
e 25 45 1.0
e 26 263 25.0
e 26 4 1.0
e 26 308 1.0
e 26 69 25.0
e 27 240 1.0
e 27 14 2.0
e 27 243 1.0
e 27 268 24.0
e 28 274 41.0
e 28 30 24.0
e 28 276 45.0
e 28 74 40.0
e 29 232 2.0
e 29 295 1.0
e 29 182 38.0
e 29 94 2.0
e 30 111 1.0
e 30 118 1.0
e 30 252 21.0
e 31 89 33.0
e 31 45 24.0
e 31 277 11.0
e 31 86 11.0
e 32 130 1.0
e 32 49 1.0
e 32 51 1.0
e 32 279 1.0
e 33 234 3.0
e 33 222 1.0
e 33 139 1.0
e 33 200 1.0
e 34 216 39.0
e 34 301 1.0
e 34 98 1.0
e 35 176 15.0
e 35 102 4.0
e 35 12 7.0
e 35 262 6.0
e 36 114 4.0
e 36 172 36.0
e 36 76 35.0
e 36 145 20.0
e 37 225 45.0
e 37 139 29.0
e 37 126 4.0
e 37 252 5.0
e 38 179 40.0
e 38 48 44.0
e 38 308 11.0
e 38 133 17.0
e 39 296 2.0
e 39 264 1.0
e 39 309 1.0
e 39 47 1.0
e 40 55 1.0
e 40 204 1.0
e 40 91 1.0
e 40 258 1.0
e 41 107 2.0
e 41 10 1.0
e 41 125 2.0
e 41 85 1.0
e 42 87 1.0
e 42 20 1.0
e 42 33 1.0
e 42 135 1.0
e 43 81 1.0
e 43 254 15.0
e 43 237 2.0
e 43 36 30.0
e 44 187 1.0
e 44 242 4.0
e 44 93 2.0
e 44 280 1.0
e 45 84 33.0
e 45 238 1.0
e 45 125 2.0
e 45 289 45.0
e 46 204 2.0
e 46 21 1.0
e 46 202 1.0
e 46 233 1.0
e 47 181 2.0
e 47 99 1.0
e 47 35 40.0
e 47 308 1.0
e 48 51 34.0
e 48 152 24.0
e 48 147 10.0
e 48 309 43.0
e 49 291 2.0
e 49 13 1.0
e 49 287 45.0
e 49 227 3.0
e 50 262 7.0
e 50 214 10.0
e 50 92 5.0
e 50 276 45.0
e 51 204 1.0
e 51 108 17.0
e 51 182 10.0
e 51 39 1.0
e 52 286 1.0
e 52 275 17.0
e 52 252 18.0
e 52 250 15.0
e 53 137 1.0
e 53 189 1.0
e 53 111 1.0
e 53 88 1.0
e 54 53 1.0
e 54 302 1.0
e 54 134 1.0
e 54 105 1.0
e 55 77 1.0
e 55 82 2.0
e 55 71 1.0
e 55 245 1.0
e 56 133 35.0
e 56 236 43.0
e 56 252 24.0
e 56 226 25.0
e 57 12 1.0
e 57 138 1.0
e 57 178 1.0
e 57 226 1.0
e 58 7 3.0
e 58 15 33.0
e 58 77 39.0
e 58 197 8.0
e 59 136 1.0
e 59 11 1.0
e 59 42 1.0
e 59 306 1.0
e 60 218 1.0
e 60 161 1.0
e 60 26 1.0
e 61 87 1.0
e 61 15 1.0
e 61 22 22.0
e 61 303 42.0
e 62 2 18.0
e 62 226 25.0
e 62 217 27.0
e 62 10 45.0
e 63 177 33.0
e 63 22 3.0
e 63 3 30.0
e 63 241 40.0
e 64 175 1.0
e 64 288 45.0
e 64 159 1.0
e 64 262 1.0
e 65 51 14.0
e 65 241 32.0
e 65 219 42.0
e 65 27 5.0
e 66 58 43.0
e 66 103 2.0
e 66 40 1.0
e 66 296 2.0
e 67 277 36.0
e 67 249 2.0
e 67 71 1.0
e 67 220 2.0
e 68 229 1.0
e 68 248 1.0
e 68 169 1.0
e 68 99 1.0
e 69 141 29.0
e 69 166 37.0
e 69 75 37.0
e 69 242 1.0
e 70 223 1.0
e 70 236 34.0
e 70 115 1.0
e 70 193 1.0
e 71 147 2.0
e 71 160 33.0
e 71 103 1.0
e 71 294 1.0
e 72 49 2.0
e 72 119 1.0
e 72 225 1.0
e 72 120 36.0
e 73 109 45.0
e 73 87 41.0
e 73 213 27.0
e 73 170 21.0
e 74 295 1.0
e 74 69 1.0
e 74 314 1.0
e 75 315 1.0
e 75 221 1.0
e 75 317 1.0
e 75 49 1.0
e 76 110 18.0
e 76 88 8.0
e 76 18 4.0
e 76 249 37.0
e 77 150 28.0
e 77 216 47.0
e 77 139 1.0
e 77 212 36.0
e 78 25 1.0
e 78 179 1.0
e 78 216 12.0
e 78 241 1.0
e 79 155 2.0
e 79 215 1.0
e 79 34 2.0
e 79 64 1.0
e 80 228 1.0
e 80 46 1.0
e 80 43 2.0
e 80 296 1.0
e 81 267 1.0
e 81 233 1.0
e 81 318 1.0
e 81 17 1.0
e 82 303 25.0
e 82 148 1.0
e 82 57 2.0
e 82 7 2.0
e 83 139 1.0
e 83 285 1.0
e 83 288 13.0
e 83 158 1.0
e 84 113 21.0
e 84 56 35.0
e 84 119 23.0
e 84 105 7.0
e 85 50 30.0
e 85 45 1.0
e 85 191 7.0
e 85 111 2.0
e 86 161 10.0
e 86 46 49.0
e 86 98 37.0
e 86 279 45.0
e 87 303 14.0
e 87 118 1.0
e 87 89 1.0
e 87 278 1.0
e 88 262 1.0
e 88 42 1.0
e 88 113 1.0
e 88 210 18.0
e 89 274 1.0
e 89 157 1.0
e 89 117 42.0
e 89 247 1.0
e 90 28 5.0
e 90 300 7.0
e 90 256 23.0
e 90 163 15.0
e 90 312 9.0
e 91 8 1.0
e 91 251 1.0
e 91 65 4.0
e 91 112 23.0
e 92 253 1.0
e 92 52 1.0
e 92 78 1.0
e 92 288 43.0
e 93 248 1.0
e 93 277 35.0
e 93 98 1.0
e 93 259 1.0
e 94 207 16.0
e 94 248 34.0
e 94 301 27.0
e 94 137 23.0
e 95 318 1.0
e 95 246 1.0
e 95 57 1.0
e 95 289 2.0
e 96 34 1.0
e 96 316 46.0
e 96 98 19.0
e 96 53 35.0
e 97 276 1.0
e 97 180 1.0
e 97 269 1.0
e 97 153 1.0
e 98 125 1.0
e 98 62 47.0
e 98 108 11.0
e 98 57 1.0
e 99 67 1.0
e 99 208 5.0
e 99 295 1.0
e 99 111 1.0
e 100 238 1.0
e 100 61 1.0
e 100 82 1.0
e 100 40 1.0
e 101 207 20.0
e 101 197 8.0
e 101 55 47.0
e 101 277 30.0
e 102 72 2.0
e 102 71 2.0
e 102 126 1.0
e 102 17 1.0
e 103 81 1.0
e 103 18 1.0
e 103 318 1.0
e 103 267 1.0
e 104 72 1.0
e 104 183 19.0
e 104 213 5.0
e 104 80 1.0
e 105 226 1.0
e 105 315 1.0
e 105 123 16.0
e 105 267 1.0
e 106 266 26.0
e 106 110 2.0
e 106 311 43.0
e 106 211 1.0
e 107 287 29.0
e 107 245 1.0
e 107 24 2.0
e 107 83 1.0
e 108 122 33.0
e 108 200 3.0
e 108 262 39.0
e 108 202 1.0
e 109 121 30.0
e 109 128 46.0
e 109 98 27.0
e 110 193 2.0
e 110 172 1.0
e 110 10 2.0
e 110 89 3.0
e 111 106 2.0
e 111 256 8.0
e 111 232 2.0
e 111 186 1.0
e 112 72 42.0
e 112 273 12.0
e 112 63 49.0
e 112 96 46.0
e 113 86 2.0
e 113 43 1.0
e 113 146 1.0
e 113 308 1.0
e 114 134 1.0
e 114 244 14.0
e 114 70 1.0
e 114 27 1.0
e 115 82 2.0
e 115 272 1.0
e 115 301 1.0
e 115 276 1.0
e 116 0 1.0
e 116 244 23.0
e 116 148 1.0
e 116 22 27.0
e 117 275 40.0
e 117 97 29.0
e 117 36 28.0
e 117 194 14.0
e 118 226 1.0
e 118 19 1.0
e 118 32 1.0
e 118 115 1.0
e 119 88 1.0
e 119 201 2.0
e 119 136 3.0
e 119 57 2.0
e 120 79 37.0
e 120 173 49.0
e 120 294 34.0
e 120 0 21.0
e 121 218 21.0
e 121 315 37.0
e 121 200 39.0
e 121 141 35.0
e 122 281 1.0
e 122 237 1.0
e 122 139 1.0
e 122 293 1.0
e 123 130 8.0
e 123 223 22.0
e 123 106 41.0
e 123 228 49.0
e 124 200 1.0
e 124 94 39.0
e 124 277 44.0
e 124 185 1.0
e 125 31 9.0
e 125 178 1.0
e 125 162 2.0
e 125 229 1.0
e 126 250 3.0
e 126 144 1.0
e 126 21 1.0
e 126 215 2.0
e 127 159 2.0
e 127 184 1.0
e 127 16 5.0
e 127 118 1.0
e 128 208 1.0
e 128 258 1.0
e 128 197 1.0
e 128 119 1.0
e 129 98 1.0
e 129 234 2.0
e 129 200 1.0
e 129 294 1.0
e 130 136 1.0
e 130 110 1.0
e 130 308 1.0
e 130 299 41.0
e 131 143 1.0
e 131 65 38.0
e 131 110 2.0
e 131 3 1.0
e 132 251 1.0
e 132 252 12.0
e 132 180 1.0
e 132 104 1.0
e 133 97 1.0
e 133 251 1.0
e 133 310 1.0
e 133 148 1.0
e 134 297 1.0
e 134 183 24.0
e 134 223 3.0
e 135 140 42.0
e 135 178 1.0
e 135 61 1.0
e 135 255 1.0
e 136 114 1.0
e 136 44 1.0
e 136 131 1.0
e 136 2 1.0
e 137 91 1.0
e 137 233 1.0
e 137 64 1.0
e 137 255 1.0
e 138 149 45.0
e 138 119 1.0
e 138 305 1.0
e 138 267 1.0
e 139 126 1.0
e 139 193 1.0
e 139 217 1.0
e 139 39 1.0
e 140 238 43.0
e 140 117 23.0
e 140 78 33.0
e 140 198 48.0
e 141 9 1.0
e 141 186 1.0
e 141 242 9.0
e 142 268 5.0
e 142 314 35.0
e 142 161 21.0
e 142 193 21.0
e 143 154 1.0
e 143 292 3.0
e 143 16 25.0
e 143 86 7.0
e 144 89 1.0
e 144 221 1.0
e 144 232 2.0
e 144 156 1.0
e 145 38 35.0
e 145 181 1.0
e 145 299 30.0
e 145 111 1.0
e 146 19 1.0
e 146 313 1.0
e 146 239 1.0
e 146 306 1.0
e 147 250 8.0
e 147 104 1.0
e 147 74 1.0
e 147 16 23.0
e 148 256 34.0
e 148 18 1.0
e 148 297 1.0
e 148 182 16.0
e 149 184 5.0
e 149 155 48.0
e 149 16 47.0
e 149 126 24.0
e 150 134 12.0
e 150 62 5.0
e 150 64 33.0
e 150 318 18.0
e 151 139 46.0
e 151 130 45.0
e 151 34 7.0
e 151 225 24.0
e 152 299 13.0
e 152 214 34.0
e 152 43 1.0
e 152 311 8.0
e 153 133 1.0
e 153 194 2.0
e 153 29 2.0
e 153 126 1.0
e 154 186 1.0
e 154 52 1.0
e 154 114 1.0
e 154 93 3.0
e 155 148 1.0
e 155 60 1.0
e 155 268 26.0
e 155 243 1.0
e 156 219 1.0
e 156 79 1.0
e 156 213 38.0
e 156 317 1.0
e 157 187 1.0
e 157 236 6.0
e 157 303 39.0
e 157 1 1.0
e 158 304 1.0
e 158 228 1.0
e 158 162 2.0
e 158 282 46.0
e 159 290 1.0
e 159 149 37.0
e 159 277 34.0
e 159 251 1.0
e 160 196 45.0
e 160 129 41.0
e 160 184 28.0
e 160 179 20.0
e 161 47 1.0
e 161 241 1.0
e 161 120 39.0
e 161 107 1.0
e 162 302 1.0
e 162 295 3.0
e 162 164 39.0
e 162 207 2.0
e 163 259 43.0
e 163 228 32.0
e 163 155 18.0
e 163 75 49.0
e 164 11 40.0
e 164 154 26.0
e 164 80 47.0
e 164 108 4.0
e 165 199 9.0
e 165 227 2.0
e 165 147 2.0
e 165 30 2.0
e 166 129 1.0
e 166 121 29.0
e 166 79 2.0
e 166 113 1.0
e 167 16 33.0
e 167 275 28.0
e 167 118 1.0
e 167 157 1.0
e 168 273 1.0
e 168 137 1.0
e 168 100 2.0
e 168 288 25.0
e 169 251 1.0
e 169 289 41.0
e 169 256 4.0
e 169 99 1.0
e 170 310 1.0
e 170 200 1.0
e 170 301 1.0
e 170 299 26.0
e 171 192 1.0
e 171 133 1.0
e 171 26 1.0
e 171 260 30.0
e 172 17 1.0
e 172 240 1.0
e 172 13 1.0
e 172 183 46.0
e 173 112 48.0
e 173 57 1.0
e 173 190 1.0
e 173 142 45.0
e 174 295 1.0
e 174 35 17.0
e 174 167 1.0
e 174 201 2.0
e 175 13 1.0
e 175 84 13.0
e 175 259 1.0
e 175 296 1.0
e 176 137 2.0
e 176 154 13.0
e 176 2 42.0
e 176 3 12.0
e 177 105 47.0
e 177 274 29.0
e 177 209 8.0
e 177 38 38.0
e 178 83 1.0
e 178 109 9.0
e 178 149 11.0
e 178 145 1.0
e 179 166 1.0
e 179 70 1.0
e 179 296 1.0
e 179 290 1.0
e 180 315 1.0
e 180 125 1.0
e 180 46 2.0
e 180 39 1.0
e 181 24 1.0
e 181 127 2.0
e 181 237 2.0
e 181 209 1.0
e 182 83 48.0
e 182 63 29.0
e 182 56 28.0
e 182 12 45.0
e 183 154 41.0
e 183 157 10.0
e 183 33 4.0
e 183 302 43.0
e 184 96 35.0
e 184 174 3.0
e 184 78 1.0
e 184 212 1.0
e 185 1 1.0
e 185 30 1.0
e 185 284 25.0
e 185 199 22.0
e 186 73 15.0
e 186 6 38.0
e 186 262 1.0
e 187 290 1.0
e 187 302 1.0
e 187 313 1.0
e 187 120 29.0
e 188 219 1.0
e 188 75 1.0
e 188 15 1.0
e 188 276 1.0
e 189 14 1.0
e 189 93 2.0
e 189 21 1.0
e 189 29 1.0
e 190 110 1.0
e 190 84 38.0
e 190 264 1.0
e 190 230 1.0
e 191 190 20.0
e 191 58 27.0
e 191 170 5.0
e 191 157 1.0
e 192 283 1.0
e 192 43 1.0
e 192 63 1.0
e 192 11 2.0
e 193 24 1.0
e 193 20 1.0
e 193 268 1.0
e 193 295 1.0
e 194 18 1.0
e 194 43 1.0
e 194 41 1.0
e 194 208 41.0
e 195 173 2.0
e 195 71 1.0
e 195 119 2.0
e 195 277 35.0
e 196 230 14.0
e 196 313 3.0
e 196 4 19.0
e 196 255 31.0
e 197 29 1.0
e 197 207 1.0
e 197 181 2.0
e 197 113 1.0
e 198 210 20.0
e 198 308 1.0
e 198 267 1.0
e 198 59 1.0
e 199 280 12.0
e 199 51 41.0
e 199 167 42.0
e 199 166 16.0
e 200 169 1.0
e 200 31 46.0
e 200 16 46.0
e 200 140 21.0
e 201 98 1.0
e 201 311 45.0
e 201 202 1.0
e 201 178 1.0
e 202 269 1.0
e 202 268 25.0
e 202 186 1.0
e 202 176 14.0
e 203 135 49.0
e 203 300 12.0
e 203 307 29.0
e 203 13 10.0
e 204 192 1.0
e 204 281 1.0
e 204 253 3.0
e 204 21 1.0
e 205 257 46.0
e 205 19 5.0
e 205 77 30.0
e 205 24 29.0
e 206 5 1.0
e 206 147 1.0
e 206 190 1.0
e 206 32 1.0
e 207 8 1.0
e 207 206 1.0
e 207 304 1.0
e 207 31 46.0
e 208 97 37.0
e 208 207 9.0
e 208 34 25.0
e 208 22 30.0
e 209 207 1.0
e 209 12 1.0
e 209 146 1.0
e 209 194 1.0
e 210 21 28.0
e 210 6 35.0
e 210 309 21.0
e 210 86 28.0
e 211 112 1.0
e 211 31 38.0
e 211 94 27.0
e 211 252 21.0
e 212 290 10.0
e 212 108 13.0
e 212 272 37.0
e 212 170 32.0
e 213 281 17.0
e 213 44 3.0
e 213 290 6.0
e 213 55 21.0
e 214 70 1.0
e 214 227 12.0
e 214 122 19.0
e 214 205 48.0
e 215 201 2.0
e 215 84 36.0
e 215 104 1.0
e 215 153 2.0
e 216 214 26.0
e 216 84 40.0
e 216 158 29.0
e 216 33 29.0
e 217 272 1.0
e 217 289 43.0
e 217 101 17.0
e 217 138 1.0
e 218 217 1.0
e 218 153 1.0
e 218 224 1.0
e 218 87 1.0
e 219 142 34.0
e 219 112 4.0
e 219 46 1.0
e 219 283 1.0
e 220 238 1.0
e 220 71 1.0
e 220 277 1.0
e 220 93 2.0
e 221 117 32.0
e 221 206 1.0
e 221 178 1.0
e 221 43 1.0
e 222 129 1.0
e 222 23 1.0
e 222 197 1.0
e 222 27 1.0
e 223 179 1.0
e 223 26 1.0
e 223 197 1.0
e 223 170 2.0
e 224 157 2.0
e 224 284 32.0
e 224 144 1.0
e 224 23 2.0
e 225 259 1.0
e 225 129 1.0
e 225 191 39.0
e 225 227 1.0
e 226 270 29.0
e 226 281 1.0
e 226 186 1.0
e 226 9 1.0
e 227 207 1.0
e 227 110 2.0
e 227 84 31.0
e 227 277 3.0
e 228 76 33.0
e 228 226 1.0
e 228 127 1.0
e 228 252 10.0
e 229 145 2.0
e 229 267 1.0
e 229 198 1.0
e 229 177 2.0
e 230 305 1.0
e 230 26 2.0
e 230 153 1.0
e 230 166 1.0
e 231 263 21.0
e 231 151 41.0
e 231 118 1.0
e 231 134 1.0
e 232 148 1.0
e 232 209 1.0
e 232 87 1.0
e 232 317 1.0
e 233 293 1.0
e 233 279 1.0
e 233 9 1.0
e 233 1 1.0
e 234 160 9.0
e 234 189 2.0
e 234 200 3.0
e 234 227 3.0
e 235 79 2.0
e 235 121 8.0
e 235 189 3.0
e 235 39 2.0
e 236 202 47.0
e 236 311 17.0
e 236 315 25.0
e 236 92 43.0
e 237 241 1.0
e 237 25 1.0
e 237 255 1.0
e 237 260 35.0
e 238 159 1.0
e 238 272 1.0
e 238 142 26.0
e 238 64 1.0
e 239 33 1.0
e 239 104 1.0
e 239 158 1.0
e 239 191 38.0
e 240 103 1.0
e 240 148 1.0
e 240 186 1.0
e 240 251 1.0
e 241 75 1.0
e 241 265 1.0
e 241 228 1.0
e 241 93 3.0
e 242 317 32.0
e 242 269 5.0
e 242 232 39.0
e 242 255 2.0
e 243 259 1.0
e 243 162 2.0
e 243 101 18.0
e 244 207 7.0
e 244 304 48.0
e 244 197 33.0
e 244 99 33.0
e 245 70 1.0
e 245 22 34.0
e 245 97 1.0
e 245 294 3.0
e 246 72 1.0
e 246 306 1.0
e 246 271 1.0
e 246 313 1.0
e 247 57 2.0
e 247 106 1.0
e 247 105 1.0
e 247 143 1.0
e 248 32 2.0
e 248 208 23.0
e 248 209 1.0
e 248 191 39.0
e 249 252 26.0
e 249 228 1.0
e 249 15 1.0
e 249 248 1.0
e 250 56 23.0
e 250 214 41.0
e 250 101 5.0
e 250 53 17.0
e 251 78 1.0
e 251 199 26.0
e 251 36 25.0
e 251 99 1.0
e 252 190 3.0
e 252 245 17.0
e 252 10 34.0
e 252 213 32.0
e 253 222 1.0
e 253 117 13.0
e 253 280 1.0
e 253 122 1.0
e 254 226 39.0
e 254 2 43.0
e 254 99 39.0
e 254 178 48.0
e 255 125 2.0
e 255 273 1.0
e 255 65 20.0
e 256 121 43.0
e 256 196 41.0
e 256 226 43.0
e 256 105 14.0
e 257 133 1.0
e 257 203 38.0
e 257 297 1.0
e 257 152 1.0
e 258 224 1.0
e 258 226 1.0
e 258 221 1.0
e 258 292 43.0
e 259 284 36.0
e 259 34 1.0
e 259 56 19.0
e 259 85 1.0
e 260 16 10.0
e 260 124 17.0
e 260 137 42.0
e 260 52 11.0
e 261 142 35.0
e 261 241 21.0
e 261 245 32.0
e 261 171 19.0
e 262 103 1.0
e 262 70 1.0
e 262 14 1.0
e 262 39 1.0
e 263 245 18.0
e 263 108 48.0
e 263 201 17.0
e 263 16 32.0
e 264 59 1.0
e 264 126 1.0
e 264 167 1.0
e 264 265 1.0
e 265 125 2.0
e 265 74 1.0
e 265 201 1.0
e 266 101 1.0
e 266 267 38.0
e 266 74 38.0
e 266 243 41.0
e 267 56 4.0
e 267 301 1.0
e 267 177 29.0
e 267 134 1.0
e 268 218 23.0
e 268 132 42.0
e 268 261 11.0
e 268 272 1.0
e 269 12 1.0
e 269 52 1.0
e 269 213 36.0
e 269 313 1.0
e 270 181 21.0
e 270 250 9.0
e 270 15 48.0
e 270 247 25.0
e 271 113 1.0
e 271 161 1.0
e 271 273 1.0
e 271 112 37.0
e 272 158 1.0
e 272 7 1.0
e 272 318 1.0
e 272 65 44.0
e 273 227 1.0
e 273 171 1.0
e 273 242 41.0
e 273 8 2.0
e 274 225 1.0
e 274 72 1.0
e 274 180 1.0
e 274 264 1.0
e 275 3 13.0
e 275 209 24.0
e 275 28 33.0
e 275 157 13.0
e 276 316 1.0
e 276 294 2.0
e 276 62 45.0
e 276 14 2.0
e 277 239 12.0
e 277 187 20.0
e 277 141 11.0
e 277 56 30.0
e 278 288 32.0
e 278 39 1.0
e 278 114 1.0
e 278 154 2.0
e 279 271 2.0
e 279 256 39.0
e 279 146 1.0
e 279 27 1.0
e 280 35 36.0
e 280 102 1.0
e 280 241 1.0
e 280 137 1.0
e 281 117 12.0
e 281 232 2.0
e 281 252 35.0
e 281 103 1.0
e 282 300 37.0
e 282 306 36.0
e 282 134 13.0
e 282 150 6.0
e 283 316 1.0
e 283 10 1.0
e 283 252 7.0
e 283 199 15.0
e 284 47 45.0
e 284 87 37.0
e 284 150 29.0
e 284 120 22.0
e 285 294 1.0
e 285 116 1.0
e 285 240 1.0
e 285 47 1.0
e 286 296 1.0
e 286 10 2.0
e 286 139 2.0
e 286 183 12.0
e 287 299 14.0
e 287 47 27.0
e 287 120 7.0
e 287 0 44.0
e 288 292 30.0
e 288 261 14.0
e 288 17 40.0
e 288 218 26.0
e 289 228 11.0
e 289 265 14.0
e 289 248 3.0
e 289 27 38.0
e 290 99 1.0
e 290 220 1.0
e 290 273 1.0
e 290 47 1.0
e 291 126 2.0
e 291 63 6.0
e 291 78 2.0
e 291 175 1.0
e 292 272 49.0
e 292 36 21.0
e 292 74 30.0
e 292 62 24.0
e 293 267 1.0
e 293 201 1.0
e 293 286 1.0
e 294 267 1.0
e 294 64 1.0
e 294 300 2.0
e 294 190 1.0
e 295 304 1.0
e 295 4 1.0
e 295 113 1.0
e 295 98 1.0
e 296 207 2.0
e 296 134 1.0
e 296 111 1.0
e 296 244 13.0
e 297 68 1.0
e 297 123 40.0
e 297 242 37.0
e 297 230 2.0
e 298 144 1.0
e 298 285 1.0
e 298 70 1.0
e 298 44 1.0
e 299 318 33.0
e 299 18 39.0
e 299 156 41.0
e 299 252 7.0
e 300 65 10.0
e 300 86 31.0
e 300 296 2.0
e 300 108 12.0
e 301 272 1.0
e 301 205 9.0
e 301 177 39.0
e 301 307 1.0
e 302 172 1.0
e 302 68 1.0
e 302 208 44.0
e 302 316 1.0
e 303 133 49.0
e 303 167 34.0
e 303 95 36.0
e 303 176 5.0
e 304 75 1.0
e 304 215 2.0
e 304 122 1.0
e 304 182 47.0
e 305 26 1.0
e 305 253 1.0
e 305 65 9.0
e 305 116 1.0
e 306 81 1.0
e 306 44 1.0
e 306 176 14.0
e 306 31 41.0
e 307 205 20.0
e 307 51 1.0
e 307 67 1.0
e 307 236 39.0
e 308 221 2.0
e 308 54 1.0
e 308 264 1.0
e 308 112 40.0
e 309 251 1.0
e 309 231 1.0
e 309 134 1.0
e 309 267 1.0
e 310 144 1.0
e 310 278 1.0
e 310 24 1.0
e 310 93 1.0
e 311 157 34.0
e 311 212 4.0
e 311 316 2.0
e 311 140 38.0
e 312 2 31.0
e 312 171 10.0
e 312 177 4.0
e 312 129 43.0
e 313 252 45.0
e 313 240 1.0
e 313 59 1.0
e 313 127 2.0
e 314 290 1.0
e 314 243 1.0
e 314 203 2.0
e 314 158 1.0
e 315 253 1.0
e 315 279 1.0
e 315 69 33.0
e 315 213 6.0
e 316 186 1.0
e 316 13 1.0
e 316 91 1.0
e 316 250 31.0
e 317 245 1.0
e 317 11 1.0
e 317 101 9.0
e 317 129 1.0
e 318 76 24.0
e 318 10 1.0
e 318 239 1.0
e 318 285 1.0
e 319 145 1.0
e 319 85 1.0
e 319 97 2.0
e 319 73 11.0
